% demand
num_movements = 45;
loading_factor = [1500, 1350, 1450, 1300, 1800, 2000, 1700, 1000, 1150, 1200, 1150, 1050, 1900, 1600, 1250, 1800, 1800, 1050, 1850, 850, 1400, 1050, 1950, 1550, 1050, 1500, 950, 1700, 1450, 850, 1450, 1450, 1200, 1300, 1050, 950, 1050, 1700, 1600, 1400, 1250, 1850, 1700, 1400, 1450];
pickup_time = [0, 0, 0, 0, 0, 0, 1, 1, 2, 2, 2, 2, 2, 2, 2, 3, 4, 5, 6, 6, 6, 6, 6, 7, 7, 8, 8, 8, 9, 9, 9, 9, 9, 9, 9, 9, 9, 10, 10, 10, 10, 10, 10, 10, 11];
delivery_time = [1, 1, 1, 1, 1, 1, 5, 2, 3, 3, 5, 5, 5, 5, 4, 8, 5, 9, 7, 7, 8, 8, 9, 9, 8, 9, 9, 9, 10, 10, 10, 10, 10, 10, 10, 10, 10, 12, 12, 12, 12, 11, 12, 12, 12];

% transporter definition
total_capacity = 11000;
num_decks = 4;
capacity = [3000, 3000, 1000, 4000];

% ways out of decks
num_ways_out = 2;
paths_out = array3d(decks, ways_out, decks, [
% ways out of deck d1
2, 4, 0, 0, 3, 4, 0, 0, 

% ways out of deck d2
4, 0, 0, 0, 0, 0, 0, 0,	

% ways out of deck d3
4, 0, 0, 0, 0, 0, 0, 0,	

% ways out of deck d4
0, 0, 0, 0,	0, 0, 0, 0,	

]);

